5 5
5 1 3 9 2 1 2 2 16 4 4 8 3 9 2 4 1 16 5 2 19 3 7 4 10 1 8 5 8 5 4 19 2 16 5 17 3 14 1 8
7 5 1 18 3 17 2 19 4 8 5 16 2 2 17 3 19 4 2 9 4 2 1 20 5 7 5 3 3 2 13 5 8 4 7 1 6 2 4 17 5 19 1 4 9 3 4 13 2 20 5 16
5 3 3 4 5 12 2 18 2 3 11 2 12 5 4 20 3 7 2 18 5 13 1 14 3 2 19 4 5 5 2 2 2 14 5 14
8 2 5 4 2 12 3 2 14 4 6 1 8 1 5 3 1 1 5 2 3 7 2 10 1 4 5 2 5 9 1 12 4 2 15 5 17 1 4 4 16
8 3 1 12 3 12 4 5 2 4 10 2 14 2 3 9 5 17 2 4 8 2 3 5 4 14 5 13 3 18 2 2 1 17 5 2 4 3 11 1 8 5 10 4 18 4 4 15 5 15 1 5 2 19 5 1 7 5 13 4 11 3 17 2 5